Solver command line: ['C:\\Users\\Gabriela Escobar\\anaconda3\\envs\\pyomo_env\\Library\\bin\\glpsol.exe', '--write', 'C:\\Users\\GABRIE~1\\AppData\\Local\\Temp\\tmp16eyssf4.glpk.raw', '--wglp', 'C:\\Users\\GABRIE~1\\AppData\\Local\\Temp\\tmpmiv279me.glpk.glp', '--cpxlp', 'C:\\Users\\GABRIE~1\\AppData\\Local\\Temp\\tmpin06rniz.pyomo.lp']

GLPSOL--GLPK LP/MIP Solver 5.0
Parameter(s) specified in the command line:
 --write C:\Users\GABRIE~1\AppData\Local\Temp\tmp16eyssf4.glpk.raw --wglp
 C:\Users\GABRIE~1\AppData\Local\Temp\tmpmiv279me.glpk.glp --cpxlp C:\Users\GABRIE~1\AppData\Local\Temp\tmpin06rniz.pyomo.lp
Reading problem data from 'C:\Users\GABRIE~1\AppData\Local\Temp\tmpin06rniz.pyomo.lp'...
51 rows, 51 columns, 2501 non-zeros
2762 lines were read
Writing problem data to 'C:\Users\GABRIE~1\AppData\Local\Temp\tmpmiv279me.glpk.glp'...
2707 lines were written
GLPK Simplex Optimizer 5.0
51 rows, 51 columns, 2501 non-zeros
Preprocessing...
50 rows, 50 columns, 2500 non-zeros
Scaling...
 A: min|aij| =  1.366e-03  max|aij| =  4.999e+00  ratio =  3.660e+03
GM: min|aij| =  2.871e-02  max|aij| =  3.483e+01  ratio =  1.213e+03
EQ: min|aij| =  8.443e-04  max|aij| =  1.000e+00  ratio =  1.184e+03
Constructing initial basis...
Size of triangular part is 50
*     0: obj =  -0.000000000e+00 inf =   0.000e+00 (50)
*    33: obj =   1.905349833e+02 inf =   0.000e+00 (0)
OPTIMAL LP SOLUTION FOUND
Time used:   0.0 secs
Memory used: 0.5 Mb (490780 bytes)
Writing basic solution to 'C:\Users\GABRIE~1\AppData\Local\Temp\tmp16eyssf4.glpk.raw'...
111 lines were written

